; 
(set-info :status unknown)
(declare-fun node_0x7ffff173ed40 () (_ BitVec 1))
(declare-fun ccso_node_0x7ffff174aa10 () (_ BitVec 32))
(declare-fun ine_0x7ffff174b150 () (_ BitVec 1))
(declare-fun carg_node_0x7ffff173e270 () (_ BitVec 64))
(declare-fun carg_node_0x7ffff06e1b40_CS0x414ef18 () (_ BitVec 64))
(declare-fun carg_node_0x7ffff173e3f0 () (_ BitVec 64))
(declare-fun carg_node_0x7ffff06e1ce0_CS0x414ef18 () (_ BitVec 64))
(declare-fun node_0x7ffff174a440 () (_ BitVec 64))
(declare-fun carg_node_0x7ffff06e1940_CS0x414ef18 () (_ BitVec 64))
(declare-fun fsub_0x7ffff174a5e0 () (_ BitVec 64))
(declare-fun fmul_0x7ffff174a210 () (_ BitVec 64))
(declare-fun node_0x7ffff1740d40 () (_ BitVec 64))
(declare-fun node_0x7ffff17409d0 () (_ BitVec 64))
(declare-fun node_0x7ffff174a070 () (_ BitVec 64))
(declare-fun node_0x7ffff1749ca0 () (_ BitVec 64))
(declare-fun fadd_0x7ffff1749e40 () (_ BitVec 64))
(declare-fun fmul_0x7ffff1749a70 () (_ BitVec 64))
(declare-fun node_0x7ffff17498d0 () (_ BitVec 64))
(declare-fun fmul_0x7ffff1740b50 () (_ BitVec 64))
(declare-fun carg_node_0x7ffff173df70 () (_ BitVec 64))
(declare-fun node_0x7ffff1749540 () (_ BitVec 64))
(declare-fun fmul_0x7ffff17496e0 () (_ BitVec 64))
(declare-fun node_0x7ffff1745d50 () (_ BitVec 64))
(declare-fun fsub_0x7ffff1745ef0 () (_ BitVec 64))
(declare-fun carg_node_0x7ffff173da30 () (_ BitVec 64))
(declare-fun node_0x7ffff17458e0 () (_ BitVec 64))
(declare-fun LdMem_0x7ffff1745a80 () (_ BitVec 64))
(declare-fun pcso_node_0x11feeda0 () (_ BitVec 64))
(declare-fun StMem_0x11feef50 () (_ BitVec 64))
(declare-fun R0x7ffff173d490 () (_ BitVec 1))
(declare-fun node_0x7ffff1749170 () (_ BitVec 64))
(declare-fun fmul_0x7ffff1749310 () (_ BitVec 64))
(declare-fun fmul_0x7ffff1740ee0 () (_ BitVec 64))
(declare-fun carg_node_0x7ffff173e0f0 () (_ BitVec 64))
(declare-fun node_0x7ffff1748de0 () (_ BitVec 64))
(declare-fun fmul_0x7ffff1748f80 () (_ BitVec 64))
(declare-fun node_0x7ffff1745110 () (_ BitVec 64))
(declare-fun fsub_0x7ffff17452b0 () (_ BitVec 64))
(declare-fun carg_node_0x7ffff173d8d0 () (_ BitVec 64))
(declare-fun node_0x7ffff1744cc0 () (_ BitVec 64))
(declare-fun LdMem_0x7ffff1744e40 () (_ BitVec 64))
(declare-fun pcso_node_0x11fee9a0 () (_ BitVec 64))
(declare-fun StMem_0x11feeb80 () (_ BitVec 64))
(declare-fun node_0x7ffff1748a10 () (_ BitVec 64))
(declare-fun carg_node_0x7ffff06e17e0_CS0x414ef18 () (_ BitVec 64))
(declare-fun fmul_0x7ffff1748bb0 () (_ BitVec 64))
(declare-fun node_0x7ffff1748500 () (_ BitVec 64))
(declare-fun fadd_0x7ffff17486a0 () (_ BitVec 64))
(declare-fun fmul_0x7ffff17482d0 () (_ BitVec 64))
(declare-fun node_0x7ffff1748130 () (_ BitVec 64))
(declare-fun node_0x7ffff1747d60 () (_ BitVec 64))
(declare-fun fmul_0x7ffff1747f00 () (_ BitVec 64))
(declare-fun node_0x7ffff17478f0 () (_ BitVec 64))
(declare-fun LdMem_0x7ffff1742dd0 () (_ BitVec 64))
(declare-fun pcso_node_0x7b9afc0 () (_ BitVec 64))
(declare-fun StMem_0x7b8a3d0 () (_ BitVec 64))
(declare-fun node_0x7ffff1747120 () (_ BitVec 64))
(declare-fun fmul_0x7ffff17472c0 () (_ BitVec 64))
(declare-fun node_0x7ffff1746940 () (_ BitVec 64))
(declare-fun fmul_0x7ffff1746ef0 () (_ BitVec 64))
(declare-fun node_0x7ffff1746520 () (_ BitVec 64))
(declare-fun LdMem_0x7ffff1741570 () (_ BitVec 64))
(declare-fun pcso_node_0x7b94c10 () (_ BitVec 64))
(declare-fun StMem_0x7b88d60 () (_ BitVec 64))
(declare-fun node_0x7ffff17442b0 () (_ BitVec 64))
(declare-fun carg_node_0x7ffff06e1570_CS0x414ef18 () (_ BitVec 64))
(declare-fun fadd_0x7ffff1744450 () (_ BitVec 64))
(declare-fun fmul_0x7ffff1744080 () (_ BitVec 64))
(declare-fun node_0x7ffff1743d00 () (_ BitVec 64))
(declare-fun node_0x7ffff1743930 () (_ BitVec 64))
(declare-fun fmul_0x7ffff1743ad0 () (_ BitVec 64))
(declare-fun node_0x7ffff17434c0 () (_ BitVec 64))
(declare-fun node_0x7ffff1742c30 () (_ BitVec 64))
(declare-fun node_0x7ffff1742440 () (_ BitVec 64))
(declare-fun fmul_0x7ffff17425e0 () (_ BitVec 64))
(declare-fun node_0x7ffff1742070 () (_ BitVec 64))
(declare-fun fmul_0x7ffff1742210 () (_ BitVec 64))
(declare-fun node_0x7ffff1741c00 () (_ BitVec 64))
(declare-fun node_0x7ffff17413f0 () (_ BitVec 64))
(declare-fun return_node_0x7ffff06e1fc0_CS0x414ef18 () (_ BitVec 32))
(declare-fun node_0x11fef800 () (_ BitVec 64))
(declare-fun parg_node_0x107adc10_CS0x414d628 () (_ BitVec 64))
(declare-fun LdMem_0x11fed580 () (_ BitVec 64))
(declare-fun parg_node_0x11fed6c0 () (_ BitVec 64))
(declare-fun StMem_0x7b8f5e0 () (_ BitVec 64))
(declare-fun node_0x107af910_CS0x414d628 () (_ BitVec 64))
(declare-fun node_0x11fede20 () (_ BitVec 64))
(declare-fun parg_node_0x107ae020_CS0x414d628 () (_ BitVec 64))
(declare-fun LdMem_0x11fed7f0 () (_ BitVec 64))
(declare-fun parg_node_0x11fedb10 () (_ BitVec 64))
(declare-fun StMem_0x11fed960 () (_ BitVec 64))
(declare-fun node_0x107afe90_CS0x414d628 () (_ BitVec 64))
(declare-fun node_0x7b9e5d0 () (_ BitVec 64))
(declare-fun parg_node_0x107b5690_CS0x414c278 () (_ BitVec 64))
(declare-fun LdMem_0x11feca10 () (_ BitVec 64))
(declare-fun parg_node_0x11fecc60 () (_ BitVec 64))
(declare-fun StMem_0x11fecb50 () (_ BitVec 64))
(declare-fun node_0x107b7470_CS0x414c278 () (_ BitVec 64))
(declare-fun node_0x7b89b30 () (_ BitVec 64))
(declare-fun parg_node_0x107b5aa0_CS0x414c278 () (_ BitVec 64))
(declare-fun LdMem_0x7ba1be0 () (_ BitVec 64))
(declare-fun parg_node_0x7b87230 () (_ BitVec 64))
(declare-fun StMem_0x7ba51f0 () (_ BitVec 64))
(declare-fun node_0x107b7a50_CS0x414c278 () (_ BitVec 64))
(declare-fun carg_node_0x7ffff173e680 () (_ BitVec 64))
(assert
 (= node_0x7ffff173ed40 (_ bv1 1)))
(assert
 (let (($x174 (= ine_0x7ffff174b150 (ite (and (distinct ccso_node_0x7ffff174aa10 (_ bv0 32)) true) (_ bv1 1) (_ bv0 1)))))
 (and (= node_0x7ffff173ed40 ine_0x7ffff174b150) $x174)))
(assert
 (= carg_node_0x7ffff06e1b40_CS0x414ef18 carg_node_0x7ffff173e270))
(assert
 (= carg_node_0x7ffff06e1ce0_CS0x414ef18 carg_node_0x7ffff173e3f0))
(assert
 (= carg_node_0x7ffff06e1940_CS0x414ef18 node_0x7ffff174a440))
(assert
 (let (($x421 (= node_0x7ffff174a440 fsub_0x7ffff174a5e0)))
 (let (($x301 (or (or (= node_0x7ffff17409d0 (_ bv0 64)) (= node_0x7ffff1740d40 (_ bv0 64))) (and (distinct fmul_0x7ffff174a210 (_ bv0 64)) true))))
 (let (($x298 (= fmul_0x7ffff174a210 (bvmul node_0x7ffff17409d0 node_0x7ffff1740d40))))
 (let (($x302 (and $x298 $x301)))
 (let (($x389 (= node_0x7ffff174a070 fmul_0x7ffff174a210)))
 (let (($x197 (= fsub_0x7ffff174a5e0 (bvsub node_0x7ffff1749ca0 node_0x7ffff174a070))))
 (let (($x422 (= node_0x7ffff1749ca0 fadd_0x7ffff1749e40)))
 (let (($x518 (= node_0x7ffff17498d0 fmul_0x7ffff1749a70)))
 (let (($x290 (= carg_node_0x7ffff173df70 (_ bv0 64))))
 (let ((?x288 (bvmul carg_node_0x7ffff173df70 carg_node_0x7ffff173df70)))
 (let (($x289 (= fmul_0x7ffff1740b50 ?x288)))
 (let (($x294 (and $x289 (or (or $x290 $x290) (and (distinct fmul_0x7ffff1740b50 (_ bv0 64)) true)))))
 (let (($x161 (= node_0x7ffff17409d0 fmul_0x7ffff1740b50)))
 (let (($x257 (= node_0x7ffff17409d0 (_ bv0 64))))
 (let (($x256 (= node_0x7ffff1749540 (_ bv0 64))))
 (let (($x258 (or $x256 $x257)))
 (let ((?x254 (bvmul node_0x7ffff1749540 node_0x7ffff17409d0)))
 (let (($x255 (= fmul_0x7ffff1749a70 ?x254)))
 (let (($x261 (and $x255 (or $x258 (and (distinct fmul_0x7ffff1749a70 (_ bv0 64)) true)))))
 (let (($x519 (= node_0x7ffff1749540 fmul_0x7ffff17496e0)))
 (let (($x270 (or (or (= node_0x7ffff1745d50 (_ bv0 64)) (= node_0x7ffff1745d50 (_ bv0 64))) (and (distinct fmul_0x7ffff17496e0 (_ bv0 64)) true))))
 (let ((?x265 (bvmul node_0x7ffff1745d50 node_0x7ffff1745d50)))
 (let (($x266 (= fmul_0x7ffff17496e0 ?x265)))
 (let (($x271 (and $x266 $x270)))
 (let (($x520 (= node_0x7ffff1745d50 fsub_0x7ffff1745ef0)))
 (let (($x277 (= fsub_0x7ffff1745ef0 (bvsub node_0x7ffff17458e0 carg_node_0x7ffff173da30))))
 (let (($x521 (= node_0x7ffff17458e0 LdMem_0x7ffff1745a80)))
 (let (($x281 (= LdMem_0x7ffff1745a80 StMem_0x11feef50)))
 (let ((?x202 (bvadd node_0x7ffff1749170 node_0x7ffff17498d0)))
 (let (($x203 (= fadd_0x7ffff1749e40 ?x202)))
 (let (($x425 (= node_0x7ffff1749170 fmul_0x7ffff1749310)))
 (let (($x245 (= carg_node_0x7ffff173e0f0 (_ bv0 64))))
 (let ((?x243 (bvmul carg_node_0x7ffff173e0f0 carg_node_0x7ffff173e0f0)))
 (let (($x244 (= fmul_0x7ffff1740ee0 ?x243)))
 (let (($x249 (and $x244 (or (or $x245 $x245) (and (distinct fmul_0x7ffff1740ee0 (_ bv0 64)) true)))))
 (let (($x330 (= node_0x7ffff1740d40 fmul_0x7ffff1740ee0)))
 (let (($x215 (or (or (= node_0x7ffff1748de0 (_ bv0 64)) (= node_0x7ffff1740d40 (_ bv0 64))) (and (distinct fmul_0x7ffff1749310 (_ bv0 64)) true))))
 (let ((?x208 (bvmul node_0x7ffff1748de0 node_0x7ffff1740d40)))
 (let (($x216 (and (= fmul_0x7ffff1749310 ?x208) $x215)))
 (let (($x426 (= node_0x7ffff1748de0 fmul_0x7ffff1748f80)))
 (let (($x225 (or (or (= node_0x7ffff1745110 (_ bv0 64)) (= node_0x7ffff1745110 (_ bv0 64))) (and (distinct fmul_0x7ffff1748f80 (_ bv0 64)) true))))
 (let ((?x220 (bvmul node_0x7ffff1745110 node_0x7ffff1745110)))
 (let (($x226 (and (= fmul_0x7ffff1748f80 ?x220) $x225)))
 (let (($x427 (= node_0x7ffff1745110 fsub_0x7ffff17452b0)))
 (let (($x232 (= fsub_0x7ffff17452b0 (bvsub node_0x7ffff1744cc0 carg_node_0x7ffff173d8d0))))
 (let (($x428 (= node_0x7ffff1744cc0 LdMem_0x7ffff1744e40)))
 (let (($x431 (= LdMem_0x7ffff1744e40 StMem_0x11feeb80)))
 (and (or (not (= R0x7ffff173d490 (_ bv1 1))) $x431) $x431 (= StMem_0x11feeb80 pcso_node_0x11fee9a0) $x428 $x232 $x427 $x226 $x426 $x216 $x330 $x249 $x425 $x203 (or (not (= R0x7ffff173d490 (_ bv1 1))) $x281) $x281 (= StMem_0x11feef50 pcso_node_0x11feeda0) $x521 $x277 $x520 $x271 $x519 $x261 $x161 $x294 $x518 $x422 $x197 $x389 $x302 $x421)))))))))))))))))))))))))))))))))))))))))))))))))
(assert
 (= carg_node_0x7ffff06e17e0_CS0x414ef18 node_0x7ffff1748a10))
(assert
 (let (($x358 (or (or (= (_ bv2 64) (_ bv0 64)) (= node_0x7ffff1748500 (_ bv0 64))) (and (distinct fmul_0x7ffff1748bb0 (_ bv0 64)) true))))
 (let (($x359 (and (= fmul_0x7ffff1748bb0 (bvmul (_ bv2 64) node_0x7ffff1748500)) $x358)))
 (let (($x335 (= node_0x7ffff1748500 fadd_0x7ffff17486a0)))
 (let (($x561 (= node_0x7ffff1748130 fmul_0x7ffff17482d0)))
 (let (($x401 (or (or (= node_0x7ffff1747d60 (_ bv0 64)) (= node_0x7ffff17409d0 (_ bv0 64))) (and (distinct fmul_0x7ffff17482d0 (_ bv0 64)) true))))
 (let (($x397 (= fmul_0x7ffff17482d0 (bvmul node_0x7ffff1747d60 node_0x7ffff17409d0))))
 (let (($x402 (and $x397 $x401)))
 (let (($x448 (= node_0x7ffff1747d60 fmul_0x7ffff1747f00)))
 (let (($x411 (or (or (= node_0x7ffff17478f0 (_ bv0 64)) (= node_0x7ffff1745d50 (_ bv0 64))) (and (distinct fmul_0x7ffff1747f00 (_ bv0 64)) true))))
 (let (($x407 (= fmul_0x7ffff1747f00 (bvmul node_0x7ffff17478f0 node_0x7ffff1745d50))))
 (let (($x412 (and $x407 $x411)))
 (let (($x308 (= node_0x7ffff17478f0 LdMem_0x7ffff1742dd0)))
 (let (($x309 (= LdMem_0x7ffff1742dd0 StMem_0x7b8a3d0)))
 (let ((?x364 (bvadd node_0x7ffff1747120 node_0x7ffff1748130)))
 (let (($x365 (= fadd_0x7ffff17486a0 ?x364)))
 (let (($x336 (= node_0x7ffff1747120 fmul_0x7ffff17472c0)))
 (let (($x374 (or (or (= node_0x7ffff1746940 (_ bv0 64)) (= node_0x7ffff1740d40 (_ bv0 64))) (and (distinct fmul_0x7ffff17472c0 (_ bv0 64)) true))))
 (let (($x370 (= fmul_0x7ffff17472c0 (bvmul node_0x7ffff1746940 node_0x7ffff1740d40))))
 (let (($x375 (and $x370 $x374)))
 (let (($x337 (= node_0x7ffff1746940 fmul_0x7ffff1746ef0)))
 (let (($x384 (or (or (= node_0x7ffff1746520 (_ bv0 64)) (= node_0x7ffff1745110 (_ bv0 64))) (and (distinct fmul_0x7ffff1746ef0 (_ bv0 64)) true))))
 (let (($x380 (= fmul_0x7ffff1746ef0 (bvmul node_0x7ffff1746520 node_0x7ffff1745110))))
 (let (($x385 (and $x380 $x384)))
 (let (($x180 (= node_0x7ffff1746520 LdMem_0x7ffff1741570)))
 (let (($x514 (= LdMem_0x7ffff1741570 StMem_0x7b88d60)))
 (and (or (not (= R0x7ffff173d490 (_ bv1 1))) $x514) $x514 (= StMem_0x7b88d60 pcso_node_0x7b94c10) $x180 $x385 $x337 $x375 $x336 $x365 (or (not (= R0x7ffff173d490 (_ bv1 1))) $x309) $x309 (= StMem_0x7b8a3d0 pcso_node_0x7b9afc0) $x308 $x412 $x448 $x402 $x561 $x335 $x359 (= node_0x7ffff1748a10 fmul_0x7ffff1748bb0))))))))))))))))))))))))))))
(assert
 (= carg_node_0x7ffff06e1570_CS0x414ef18 node_0x7ffff17442b0))
(assert
 (let (($x506 (= node_0x7ffff1743d00 fmul_0x7ffff1744080)))
 (let (($x491 (or (or (= node_0x7ffff1743930 (_ bv0 64)) (= node_0x7ffff17409d0 (_ bv0 64))) (and (distinct fmul_0x7ffff1744080 (_ bv0 64)) true))))
 (let (($x487 (= fmul_0x7ffff1744080 (bvmul node_0x7ffff1743930 node_0x7ffff17409d0))))
 (let (($x492 (and $x487 $x491)))
 (let (($x494 (= node_0x7ffff1743930 fmul_0x7ffff1743ad0)))
 (let (($x503 (or (or (= node_0x7ffff1742c30 (_ bv0 64)) (= node_0x7ffff17434c0 (_ bv0 64))) (and (distinct fmul_0x7ffff1743ad0 (_ bv0 64)) true))))
 (let (($x498 (= fmul_0x7ffff1743ad0 (bvmul node_0x7ffff1742c30 node_0x7ffff17434c0))))
 (let (($x504 (and $x498 $x503)))
 (let ((?x457 (bvadd node_0x7ffff1742440 node_0x7ffff1743d00)))
 (let (($x458 (= fadd_0x7ffff1744450 ?x457)))
 (let (($x251 (= node_0x7ffff1742440 fmul_0x7ffff17425e0)))
 (let (($x467 (or (or (= node_0x7ffff1742070 (_ bv0 64)) (= node_0x7ffff1740d40 (_ bv0 64))) (and (distinct fmul_0x7ffff17425e0 (_ bv0 64)) true))))
 (let (($x463 (= fmul_0x7ffff17425e0 (bvmul node_0x7ffff1742070 node_0x7ffff1740d40))))
 (let (($x468 (and $x463 $x467)))
 (let (($x481 (= node_0x7ffff1742070 fmul_0x7ffff1742210)))
 (let (($x479 (or (or (= node_0x7ffff17413f0 (_ bv0 64)) (= node_0x7ffff1741c00 (_ bv0 64))) (and (distinct fmul_0x7ffff1742210 (_ bv0 64)) true))))
 (let (($x474 (= fmul_0x7ffff1742210 (bvmul node_0x7ffff17413f0 node_0x7ffff1741c00))))
 (let (($x480 (and $x474 $x479)))
 (and $x480 (= node_0x7ffff17413f0 LdMem_0x7ffff1741570) (= node_0x7ffff1741c00 LdMem_0x7ffff1741570) $x481 $x468 $x251 $x458 $x504 (= node_0x7ffff1742c30 LdMem_0x7ffff1742dd0) (= node_0x7ffff17434c0 LdMem_0x7ffff1742dd0) $x494 $x492 $x506 (= node_0x7ffff17442b0 fadd_0x7ffff1744450)))))))))))))))))))))
(assert
 (= return_node_0x7ffff06e1fc0_CS0x414ef18 ccso_node_0x7ffff174aa10))
(assert
 (= parg_node_0x107adc10_CS0x414d628 node_0x11fef800))
(assert
 (let (($x557 (= LdMem_0x11fed580 StMem_0x7b8f5e0)))
 (and (or (not (= R0x7ffff173d490 (_ bv1 1))) $x557) $x557 (= StMem_0x7b8f5e0 parg_node_0x11fed6c0) (= node_0x11fef800 LdMem_0x11fed580))))
(assert
 (= node_0x107af910_CS0x414d628 pcso_node_0x11fee9a0))
(assert
 (= parg_node_0x107ae020_CS0x414d628 node_0x11fede20))
(assert
 (let (($x531 (= node_0x11fede20 LdMem_0x11fed7f0)))
 (let (($x533 (= LdMem_0x11fed7f0 StMem_0x11fed960)))
 (and (or (not (= R0x7ffff173d490 (_ bv1 1))) $x533) $x533 (= StMem_0x11fed960 parg_node_0x11fedb10) $x531))))
(assert
 (= node_0x107afe90_CS0x414d628 pcso_node_0x11feeda0))
(assert
 (= parg_node_0x107b5690_CS0x414c278 node_0x7b9e5d0))
(assert
 (let (($x191 (= node_0x7b9e5d0 LdMem_0x11feca10)))
 (let (($x186 (= LdMem_0x11feca10 StMem_0x11fecb50)))
 (and (or (not (= R0x7ffff173d490 (_ bv1 1))) $x186) $x186 (= StMem_0x11fecb50 parg_node_0x11fecc60) $x191))))
(assert
 (= node_0x107b7470_CS0x414c278 pcso_node_0x7b94c10))
(assert
 (= parg_node_0x107b5aa0_CS0x414c278 node_0x7b89b30))
(assert
 (let (($x32 (= node_0x7b89b30 LdMem_0x7ba1be0)))
 (let (($x33 (= LdMem_0x7ba1be0 StMem_0x7ba51f0)))
 (and (or (not (= R0x7ffff173d490 (_ bv1 1))) $x33) $x33 (= StMem_0x7ba51f0 parg_node_0x7b87230) $x32))))
(assert
 (= node_0x107b7a50_CS0x414c278 pcso_node_0x7b9afc0))
(assert
 (and (distinct carg_node_0x7ffff173e680 (_ bv0 64)) true))
(maximize node_0x7ffff1743d00)
(minimize return_node_0x7ffff06e1fc0_CS0x414ef18)
(maximize LdMem_0x7ba1be0)
(maximize node_0x7ffff17498d0)
(minimize carg_node_0x7ffff06e1b40_CS0x414ef18)
(maximize node_0x7ffff1746940)
(maximize node_0x7ffff1742070)
(minimize StMem_0x7b8f5e0)
(maximize fmul_0x7ffff1748bb0)
(maximize node_0x7ffff1748130)
(minimize node_0x7ffff1749ca0)
(maximize node_0x7ffff17413f0)
(minimize node_0x7ffff1748130)
(minimize parg_node_0x7b87230)
(maximize fmul_0x7ffff1749a70)
(minimize carg_node_0x7ffff173e3f0)
(maximize pcso_node_0x11feeda0)
(maximize LdMem_0x11feca10)
(minimize node_0x7ffff1747d60)
(maximize parg_node_0x107ae020_CS0x414d628)
(check-sat)
(get-objectives)
